1000
[200,201,204,205,208,209,211,212,213,216,218,220,221,224,225,226,228,229,230,232,235,239,246,251,253,255,256,257,258,259,260,263,267,269,271,275,276,277,281,283,288,290,291,293,294,300,301,306,307,308,312,314,315,317,319,320,321,323,324,325,326,328,331,332,334,335,338,339,341,343,347,349,350,351,353,355,359,362,363,369,370,372,375,376,378,382,383,384,385,386,388,389,390,399,403,404,408,410,411,414,415,418,421,423,425,426,428,429,434,435,436,437,444,445,447,448,450,453,456,458,459,461,462,464,465,467,470,472,473,478,480,482,483,487,489,497,505,508,509,510,514,516,517,519,522,524,526,528,529,530,531,532,533,534,537,539,541,543,544,547,548,552,553,554,556,558,560,561,564,565,573,577,578,579,580,581,586,588,593,594,597,600,601,604,607,608,610,612,614,615,619,620,623,624,625,630,633,635,640,643,649,650,653,654,655,660,661,662,665,666,670,671,674,675,676,678,679,682,685,687,689,691,699,700]
[1,1,1,1,3,1,1,1,1,1,1,1,2,1,2,2,1,1,1,1,2,1,1,1,1,2,1,2,4,1,1,2,1,1,1,1,1,1,2,2,1,1,3,1,2,1,1,3,1,1,1,2,1,2,1,1,1,1,1,1,1,1,1,1,1,2,1,1,1,2,3,2,1,2,1,2,2,3,2,1,2,1,1,1,1,1,1,2,2,1,1,1,1,1,1,1,1,3,1,1,1,1,1,1,1,2,1,1,1,2,1,1,1,2,2,1,1,1,1,1,2,1,2,1,1,1,1,1,1,1,1,2,1,1,1,1,1,1,1,2,1,1,2,1,1,1,2,2,1,1,1,1,1,1,2,2,3,2,2,1,1,1,1,1,1,1,2,2,2,1,1,2,1,1,1,2,1,1,1,1,1,1,3,1,1,3,1,1,2,1,1,1,1,1,4,4,1,1,3,1,1,1,2,1,1,1,1,1,1,1,1,1,2,1,1,1,1,2,1,1,1,1,1,2]
